memory 60 Gb

molecule molecule_07_psi {
0 1
    C           -3.808989302880     0.911362787594    -0.179384374409
    H           -4.123335391092     1.891287646693     0.178946538006
    H           -4.514284093820     0.171734897997     0.201570278541
    H           -3.885074629129     0.912087858894    -1.267525723842
    C            3.113343160414     1.451424241567     0.209784444967
    H            4.000056247410     1.989048283131    -0.125232605384
    H            3.105050070584     1.466399425600     1.301032533665
    H            2.241945044657     2.004941185402    -0.137842503124
    C           -2.388043063633     0.579959017297     0.260556962467
    H           -2.324913362481     0.596785773072     1.352517825407
    H           -1.707340018422     1.352272349779    -0.102585861212
    C            3.110718788838     0.016639815818    -0.307199115567
    H            3.080846030911     0.020168861011    -1.400326174338
    H            4.048271100127    -0.467386604800    -0.024786784455
    C           -1.937457290797    -0.787361501976    -0.241723002887
    H           -1.939983334937    -0.786002165556    -1.336765518764
    H           -2.675790476366    -1.533044911876     0.067714630268
    C           -0.558208832254    -1.208821442658     0.258837089478
    H           -0.355749759566    -2.234064914160    -0.064211699939
    H           -0.561288171587    -1.224337828192     1.353699004621
    C            0.575398858686    -0.310840491736    -0.224577609737
    H            0.550353340478    -0.256857536686    -1.318875464176
    H            0.420210753544     0.704965426936     0.142820334720
    C            1.943638860182    -0.814182900086     0.221371386063
    H            1.980164527714    -0.830665926890     1.315737594083
    H            2.060743923456    -1.850563156762    -0.108093250881
}

set globals {
  reference rhf
  freeze_core true
}
energy(cbs, corl_wfn='mp2', corl_basis='cc-pv[tq]z', scf_basis='cc-pv[tq]z', corl_scheme=corl_xtpl_helgaker_2, scf_scheme=scf_xtpl_helgaker_2)
