memory 60 Gb

molecule molecule_05_psi {
0 1
    C            4.173290238529    -0.117235264765     0.126180169825
    H            4.543416564889     0.784290329623    -0.363602285635
    H            4.827023570646    -0.943459426696    -0.152137838390
    H            4.260725833460     0.031188931823     1.203288571817
    C           -4.173290438737     0.117234913726    -0.126178590694
    H           -4.260724703787    -0.031179590246    -1.203288427133
    H           -4.827024806183     0.943455978423     0.152146199994
    H           -4.543416485120    -0.784295471068     0.363595290428
    C            2.725246783732    -0.388768845052    -0.263932376801
    H            2.390688605550    -1.313018405727     0.210506161305
    H            2.656778673307    -0.549551262404    -1.343743910215
    C           -2.725247628694     0.388766356227     0.263938265035
    H           -2.390689652741     1.313020313639    -0.210491923954
    H           -2.656780703302     0.549539543456     1.343751270618
    C            1.803507217674     0.761668645664     0.125719510490
    H            2.204577468263     1.686497095888    -0.299470199954
    H            1.826041128868     0.887446104753     1.213353202296
    C            0.356519015698     0.587352288033    -0.331187879701
    H            0.335053686487     0.451491214456    -1.418017364793
    H           -0.190736325304     1.508942330598    -0.122273237776
    C           -0.356518364768    -0.587351139653     0.331183613652
    H            0.190736601918    -1.508941287620     0.122267502810
    H           -0.335052262898    -0.451490688566     1.418013326764
    C           -1.803506831569    -0.761666941445    -0.125722736217
    H           -1.826042046891    -0.887436886439    -1.213357262929
    H           -2.204575050292    -1.686498975553     0.299461215412
}

set globals {
  reference rhf
  freeze_core true
}
energy(cbs, corl_wfn='mp2', corl_basis='cc-pv[tq]z', scf_basis='cc-pv[tq]z', corl_scheme=corl_xtpl_helgaker_2, scf_scheme=scf_xtpl_helgaker_2)
