memory 40 Gb

molecule molecule_04_psi {
0 1
    C            4.278345582020    -0.538658701622     0.102600392206
    H            5.220716814110    -0.073512389847    -0.185542366576
    H            4.205268308020    -1.496560543363    -0.413821002816
    H            4.317976498252    -0.741609750931     1.173511504362
    C           -3.672185009403    -1.054566307283    -0.312165779320
    H           -2.966958076823    -1.842899058034    -0.052090512992
    H           -3.670569213981    -0.949842002600    -1.398512854686
    H           -4.664807022939    -1.387509941482    -0.009915524287
    C            3.086142646703     0.348223750229    -0.234588799493
    H            3.075456810334     0.561106643283    -1.306836395660
    H            3.187670777491     1.311970948867     0.271385295951
    C           -3.307494043086     0.267454356177     0.354888876646
    H           -4.093198870748     0.999057431572     0.153807705787
    H           -3.277444849736     0.135192452769     1.439962917325
    C            1.758442460729    -0.285410795304     0.161197170010
    H            1.766567102105    -0.498590978129     1.235050249775
    H            1.654720072109    -1.250841723480    -0.344602796923
    C            0.555402540735     0.588098424729    -0.169628274014
    H            0.546293105166     0.798414966445    -1.243966640401
    H            0.660563268717     1.554500484074     0.333669954773
    C           -0.771861055976    -0.045392339646     0.228800536019
    H           -0.862744187780    -1.015690918174    -0.266139517670
    H           -0.769327931672    -0.243591276069     1.305999737769
    C           -1.969424664287     0.832546116755    -0.116094082968
    H           -1.819056597441     1.820090899406     0.329452024265
    H           -2.003519531334     0.983243334025    -1.200133741929
}

set globals {
  reference rhf
  basis aug-cc-pvtz
  scf_type df
  mp_type df
  freeze_core true
}
energy('mp2.5')
