memory 30 Gb

molecule molecule_01_psi {
0 1
    C            4.453195629309    -0.267480458757    -0.000091896544
    H            5.330931402329     0.378294856259    -0.000116044329
    H            4.508280058514    -0.908592965948    -0.880741764502
    H            4.508316467356    -0.908576568711     0.880567648400
    C           -4.453196354276     0.267476132037     0.000094392207
    H           -4.508320381209     0.908570813892    -0.880565851794
    H           -4.508280885987     0.908589541557     0.880743480025
    H           -5.330930294018    -0.378301619528     0.000120944504
    C            3.160479588410     0.539038763698    -0.000072669676
    H            3.132822973176     1.192920499631    -0.875746358400
    H            3.132859203751     1.192936829309     0.875589993077
    C           -3.160478114308    -0.539039694901     0.000073955086
    H           -3.132818214346    -1.192920133352     0.875748465808
    H           -3.132857372887    -1.192938567053    -0.875588003376
    C            1.921224008678    -0.347023124161    -0.000038820847
    H            1.946615411549    -1.002461320543     0.876524048456
    H            1.946578695015    -1.002477065812    -0.876590961687
    C            0.619287870282     0.443473725199    -0.000018676406
    H            0.594305823613     1.098628105992    -0.876633433146
    H            0.594343456144     1.098645382945     0.876584259115
    C           -0.619287740533    -0.443470111053     0.000016655147
    H           -0.594343303963    -1.098641696970    -0.876586379367
    H           -0.594305585351    -1.098624442877     0.876631539430
    C           -1.921224822770     0.347025281548     0.000036871873
    H           -1.946579735074     1.002480612904     0.876587750003
    H           -1.946618490071     1.002461622852    -0.876527079917
}

set globals {
  reference rhf
  basis aug-cc-pvtz
  scf_type df
  mp_type df
  freeze_core true
}
energy('mp2.5')
