memory 30 Gb

molecule molecule_02_psi {
0 1
    C           -3.823673374369     0.256843488715    -1.130282884258
    H           -4.862723855855    -0.063557200642    -1.058005479069
    H           -3.414974884909    -0.137666921694    -2.061386310956
    H           -3.812269069852     1.345399415075    -1.198107089541
    C            3.823675000933    -0.256838184607    -1.130278687404
    H            4.862724385762     0.063565269196    -1.058000204289
    H            3.414976408371     0.137671165495    -2.061382291712
    H            3.812273666266    -1.345393939243    -1.198102943439
    C           -3.003613393828    -0.217875451176     0.062864756518
    H           -3.043619627413    -1.308517018970     0.128149281399
    H           -3.442179800455     0.163858565920     0.988647304128
    C            3.003612287155     0.217878179621     0.062868023607
    H            3.442178317941    -0.163854734741     0.988650788618
    H            3.043614915959     1.308519566776     0.128152701926
    C           -1.547339406513     0.222877390172    -0.018980813288
    H           -1.503044351756     1.316292179866    -0.069946897873
    H           -1.117746692096    -0.149354997056    -0.952756584249
    C           -0.718536307900    -0.257811071166     1.166627938901
    H           -0.708974620908    -1.352579382704     1.177973082426
    H           -1.213350184426     0.056841882033     2.090079607439
    C            0.718535170112     0.257804368458     1.166630056384
    H            0.708973206659     1.352572496994     1.177979193148
    H            1.213347708396    -0.056851772748     2.090081128386
    C            1.547339946343    -0.222879126605    -0.018979423110
    H            1.503048668967    -1.316293659176    -0.069947393620
    H            1.117746738871     0.149353926780    -0.952754396007
}

set globals {
  reference rhf
  basis aug-cc-pvtz
  scf_type df
  mp_type df
  freeze_core true
}
energy('mp2.5')
