memory 40 Gb

molecule molecule_03_psi {
0 1
    C            4.063921132264     0.348810712879     0.149748259052
    H            4.825352597827     0.820399173995    -0.470960789777
    H            4.380258166229    -0.675928658625     0.348324707907
    H            4.033944327871     0.877153050207     1.103465063640
    C           -2.911530778231     1.336583489365     0.518655029557
    H           -3.404840181057     2.243280301789     0.169328848589
    H           -1.941277105128     1.624261901672     0.923742950458
    H           -3.504705445692     0.926027654081     1.337689004489
    C            2.696537355539     0.370634917796    -0.522132190434
    H            2.750298814736    -0.141917989350    -1.486299746053
    H            2.406208877040     1.402747584484    -0.735859352329
    C           -2.767645292327     0.318742570880    -0.607158659230
    H           -3.745724507554     0.138465505260    -1.058581144040
    H           -2.139499806131     0.733473796952    -1.398415656637
    C            1.617846684498    -0.284236029051     0.331227013292
    H            1.560293896398     0.229775295576     1.296400553821
    H            1.906989559398    -1.317489244337     0.548803020444
    C            0.243850380316    -0.272738389719    -0.326450027879
    H            0.295718892236    -0.798992194563    -1.285709963663
    H           -0.029889099574     0.761211245504    -0.555292650798
    C           -0.829717949393    -0.915540517316     0.543475102154
    H           -0.500932629682    -1.919945671081     0.825253169967
    H           -0.919105499147    -0.353263234020     1.477011252100
    C           -2.193858626448    -1.017857464264    -0.137571992047
    H           -2.110359457272    -1.691220443318    -0.995460338588
    H           -2.903075612424    -1.481600231325     0.554372761250
}

set globals {
  reference rhf
  basis aug-cc-pvtz
  scf_type df
  mp_type df
  freeze_core true
}
energy('mp2.5')
