memory 40 Gb

molecule molecule_06_psi {
0 1
    C            2.565460845865    -1.539787923561     0.037197410635
    H            3.147748730095    -2.214748867944    -0.589614489127
    H            1.520004831152    -1.839645263395    -0.037754799055
    H            2.879903346972    -1.687622446602     1.071881616601
    C           -3.748036014908    -0.648008239816     0.144345834738
    H           -4.112383466486    -1.580317014454     0.575069616021
    H           -4.164640825598    -0.555700126836    -0.859417732992
    H           -4.141492443592     0.174307447954     0.743352099648
    C            2.762390773092    -0.088123877985    -0.385165897288
    H            2.405972395989     0.047436478723    -1.408513366185
    H            3.829972892110     0.141923135586    -0.401882474239
    C           -2.225301834000    -0.603462120657     0.103754909601
    H           -1.831904612677    -0.732156879430     1.113916162692
    H           -1.845896478531    -1.441767508550    -0.488178712068
    C            2.063526798434     0.906022772559     0.542243088954
    H            2.236990886890     1.921136216631     0.173594101499
    H            2.526822107281     0.849505190096     1.531691905003
    C            0.558630868251     0.681028713111     0.683407917899
    H            0.147745177496     1.443191616792     1.352797387945
    H            0.377212122199    -0.280224562476     1.168280814599
    C           -0.187100822364     0.743194093234    -0.645712663186
    H            0.099444352746     1.662606436239    -1.165896727914
    H            0.125940671132    -0.085796560817    -1.287387688315
    C           -1.705479948284     0.699915617658    -0.492937202392
    H           -2.031467197783     1.536896864160     0.133361666045
    H           -2.171225644367     0.845675710931    -1.472098965834
}

set globals {
  reference rhf
  basis aug-cc-pvtz
  scf_type df
  mp_type df
  freeze_core true
}
energy('mp2.5')
