memory 40 Gb

molecule molecule_09_psi {
0 1
    C           -0.583069420008    -3.608224731823    -0.831430489960
    H           -1.493067718652    -3.012333116453    -0.888693858199
    H           -0.878306313585    -4.655089018561    -0.764974653710
    H           -0.035989548306    -3.473336563313    -1.766115909887
    C            0.582979994038     3.608171907685    -0.831720980194
    H            0.035792676748     3.473226838173    -1.766335472560
    H            1.492971145028     3.012275715647    -0.889052144068
    H            0.878226001106     4.655039968097    -0.765363658716
    C            0.279704707238    -3.202316406289     0.358755951166
    H            1.124373157368    -3.889995611694     0.440322275449
    H           -0.296061010140    -3.307623056634     1.282434762992
    C           -0.279658039314     3.202339077679     0.358589784078
    H            0.296214950227     3.307698902958     1.282195772893
    H           -1.124313417146     3.890027806875     0.440212079245
    C            0.809279907476    -1.773465902316     0.261055855487
    H            1.402973862656    -1.671070558261    -0.653320724570
    H            1.490488644175    -1.584391592190     1.095710215438
    C           -0.281113663686    -0.708246670014     0.270703127291
    H           -0.912990218979    -0.847369649127     1.154454184480
    H           -0.931743427048    -0.829297329727    -0.599333534682
    C            0.281135577726     0.708260726030     0.270632179995
    H            0.913106462626     0.847432944528     1.154308405268
    H            0.931674373164     0.829258521937    -0.599480181951
    C           -0.809253119415     1.773485458999     0.261037805794
    H           -1.403049412921     1.671036278254    -0.653266737611
    H           -1.490370981173     1.584468322427     1.095779487811
}

set globals {
  reference rhf
  basis aug-cc-pvtz
  scf_type df
  mp_type df
  freeze_core true
}
energy('mp2.5')
