memory 40 Gb

molecule molecule_08_psi {
0 1
    C            3.501552120309     0.741730541303     0.121004586240
    H            3.160866879194     1.739176804326     0.402295927168
    H            4.252160691280     0.852460392640    -0.661202334329
    H            3.986251571990     0.299388339954     0.992224876471
    C           -3.312882768088    -0.001834640952     0.420115319232
    H           -3.021804059632    -1.042389644893     0.562507410396
    H           -3.880641450967     0.060225209706    -0.509923920239
    H           -3.979681033624     0.269075325649     1.238364556682
    C            2.329648634031    -0.116503385443    -0.339735231797
    H            2.687713178253    -1.107583607785    -0.633348000346
    H            1.883285787527     0.328607948869    -1.231692169180
    C           -2.097477577630     0.917593477858     0.372318998849
    H           -2.432217459164     1.956604964794     0.333201028463
    H           -1.526057303990     0.816374444624     1.298052285972
    C            1.271530637922    -0.269408118843     0.746660434884
    H            0.881167374458     0.719337545654     1.005667388544
    H            1.750483641911    -0.653074110998     1.652385089609
    C            0.123632409266    -1.201421630135     0.362186165053
    H           -0.571461352248    -1.278198196549     1.202490125462
    H            0.523420909008    -2.207387862231     0.204621193299
    C           -0.638295132379    -0.773692921014    -0.892988593935
    H            0.015291300111    -0.858685588182    -1.764235538964
    H           -1.456960998559    -1.476458116323    -1.064851536593
    C           -1.190882477139     0.650512377085    -0.828532961443
    H           -0.361902976772     1.363214138292    -0.817037621346
    H           -1.753052307529     0.850663270305    -1.745494371783
}

set globals {
  reference rhf
  basis aug-cc-pvtz
  scf_type df
  mp_type df
  freeze_core true
}
energy('mp2.5')
