memory gbytes Gb

molecule molecule_5 {
0 1
C          1.58400        0.99000       -0.06900
H          1.42100        1.37000        0.94000
H          0.89700        1.50800       -0.73800
H          2.59700        1.25700       -0.36900
C         -1.79100        0.82100        0.22200
H         -2.61900        1.20300       -0.37500
H         -2.17700        0.58400        1.21400
H         -1.06200        1.62200        0.33500
C         -1.17500       -0.42200       -0.41400
H         -0.85600       -0.19800       -1.43600
H         -1.95200       -1.18300       -0.50000
C          0.01500       -0.99300        0.37200
H         -0.09800       -0.73600        1.43000
H         -0.00300       -2.08300        0.31800
C          1.38200       -0.52000       -0.12200
H          2.15800       -1.00700        0.47300
H          1.51900       -0.86600       -1.15100
}
set globals {
  reference rhf
  g_convergence gau_tight
  basis aug-cc-pvtz
  freeze_core true
}
optimize('mp2')
