 $CONTRL  ICHARG=0 MPLEVL=2 ISPHER=1
          RUNTYP=ENERGY SCFTYP=RHF EXETYP=RUN
          MULT=1 UNITS=ANGS MAXIT=200
          COORD=PRINAXIS                       $END
 $SCF     DIRSCF=.T. CONV=1.0E-08  FDIFF=.F.   $END
 $SYSTEM  TIMLIM=50000 MWORDS=5 MEMDDI=100     $END
 $BASIS   GBASIS=ACCD                          $END
 $GUESS   GUESS=HUCKEL                         $END
 $DATA
Full optimization
 C1
 C           6.0   1.4718489506   0.6612744090  -0.0000819774
 H           1.0   2.5493845324   0.5272787803  -0.0000799518
 H           1.0   1.2170993997   1.2473842872  -0.8769084701
 H           1.0   1.2171202315   1.2475867462   0.8766154119
 C           6.0   0.7776536777  -0.7037088422   0.0000815885
 H           1.0   1.1290457714  -1.2590695974   0.8648947477
 H           1.0   1.1290347206  -1.2592602915  -0.8646139647
 C           6.0  -0.7777088996  -0.7036474817   0.0000856748
 H           1.0  -1.1291409510  -1.2591791273  -0.8646016682
 H           1.0  -1.1291379737  -1.2589736200   0.8649063294
 C           6.0  -1.4717970027   0.6613902666  -0.0000741773
 H           1.0  -2.5493430832   0.5274791574  -0.0000601703
 H           1.0  -1.2170125285   1.2476834883   0.8766196991
 H           1.0  -1.2170111363   1.2474791544  -0.8769042302
 $END
