 $CONTRL  ICHARG=0 MPLEVL=2 ISPHER=1
          RUNTYP=ENERGY SCFTYP=RHF EXETYP=RUN
          MULT=1 UNITS=ANGS MAXIT=200
          COORD=PRINAXIS                       $END
 $SCF     DIRSCF=.T. CONV=1.0E-08  FDIFF=.F.   $END
 $SYSTEM  TIMLIM=50000 MWORDS=5 MEMDDI=100     $END
 $BASIS   GBASIS=ACCD                          $END
 $GUESS   GUESS=HUCKEL                         $END
 $DATA
Full optimization
 C1
 C           6.0   1.4841533564  -0.6427621634  -0.0750348240
 H           1.0   2.5465747626  -0.5257036366   0.1156308708
 H           1.0   1.1160338153  -1.4167492579   0.5889197478
 H           1.0   1.3732554544  -1.0001844335  -1.0954137349
 C           6.0   0.7577921667   0.6856067912   0.1467058524
 H           1.0   1.2300258788   1.4615461407  -0.4488131099
 H           1.0   0.9123864084   0.9731386361   1.1847671529
 C           6.0  -0.7578753586   0.6854823957  -0.1468557967
 H           1.0  -1.2302043821   1.4614964544   0.4484901321
 H           1.0  -0.9125026793   0.9727657107  -1.1849810341
 C           6.0  -1.4840753939  -0.6429261104   0.0751757272
 H           1.0  -2.5465135193  -0.5260340785  -0.1154989658
 H           1.0  -1.1158733664  -1.4170089731  -0.5886215353
 H           1.0  -1.3731201066  -1.0001206364   1.0956281269
 $END
