 $CONTRL  ICHARG=0 MPLEVL=2 ISPHER=1
          RUNTYP=ENERGY SCFTYP=RHF EXETYP=RUN
          MULT=1 UNITS=ANGS MAXIT=200
          COORD=PRINAXIS                       $END
 $SCF     DIRSCF=.T. CONV=1.0E-08  FDIFF=.F.   $END
 $SYSTEM  TIMLIM=50000 MWORDS=5 MEMDDI=100     $END
 $BASIS   GBASIS=ACCD                          $END
 $GUESS   GUESS=HUCKEL                         $END
 $DATA
Full optimization
 C1
 C           6.0  -1.5616278092  -0.5826769158   0.1196035090
 H           1.0  -2.5771632635  -0.4784755512  -0.2499242529
 H           1.0  -1.1649790846  -1.5108688837  -0.2776817167
 H           1.0  -1.6128708271  -0.6798935970   1.2010187029
 C           6.0  -0.7108454177   0.6217880452  -0.2867815751
 H           1.0  -1.2119257958   1.5324551500   0.0321735188
 H           1.0  -0.6569836245   0.6696749955  -1.3728438163
 C           6.0   0.7107849669   0.6218055595   0.2868921047
 H           1.0   1.2117777246   1.5325803342  -0.0318924674
 H           1.0   0.6569141134   0.6694866207   1.3729630956
 C           6.0   1.5616847151  -0.5825044250  -0.1197076717
 H           1.0   2.5772231847  -0.4782466239   0.2497958387
 H           1.0   1.1651539977  -1.5107993887   0.2774546698
 H           1.0   1.6128957831  -0.6795544774  -1.2011393818
 $END
