 $CONTRL  ICHARG=0 MPLEVL=2 ISPHER=1
          RUNTYP=ENERGY SCFTYP=RHF EXETYP=RUN
          MULT=1 UNITS=ANGS MAXIT=200
          COORD=PRINAXIS                       $END
 $SCF     DIRSCF=.T. CONV=1.0E-08  FDIFF=.F.   $END
 $SYSTEM  TIMLIM=50000 MWORDS=5 MEMDDI=100     $END
 $BASIS   GBASIS=ACCD                          $END
 $GUESS   GUESS=HUCKEL                         $END
 $DATA
Full optimization
 C1
 C           6.0  -1.6925442338   0.4797714075  -0.1424575784
 H           1.0  -2.5970913034   0.4700924387   0.4581179977
 H           1.0  -1.3101030962   1.4967917687  -0.1427288323
 H           1.0  -1.9694037130   0.2319428970  -1.1629773578
 C           6.0  -0.6598061479  -0.5124323959   0.3953096874
 H           1.0  -1.0969770163  -1.5071803890   0.3638198836
 H           1.0  -0.4576133628  -0.3052523844   1.4433818713
 C           6.0   0.6598640388  -0.5122582073  -0.3954400808
 H           1.0   1.0971450364  -1.5069657147  -0.3642115047
 H           1.0   0.4576441861  -0.3048245242  -1.4434569390
 C           6.0   1.6924904944   0.4799248822   0.1425800839
 H           1.0   2.5970342424   0.4705099758  -0.4580046802
 H           1.0   1.3099291760   1.4968999164   0.1431203514
 H           1.0   1.9693864197   0.2318621978   1.1630331302
 $END
