 $CONTRL  ICHARG=0 MPLEVL=2 ISPHER=1
          RUNTYP=ENERGY SCFTYP=RHF EXETYP=RUN
          MULT=1 UNITS=ANGS MAXIT=200
          COORD=PRINAXIS                       $END
 $SCF     DIRSCF=.T. CONV=1.0E-08  FDIFF=.F.   $END
 $SYSTEM  TIMLIM=50000 MWORDS=5 MEMDDI=100     $END
 $BASIS   GBASIS=ACCD                          $END
 $GUESS   GUESS=HUCKEL                         $END
 $DATA
Full optimization
 C1
 C           6.0   1.8345482003   0.3364209252   0.1433343653
 H           1.0   2.6772245191   0.3343799014  -0.5415053472
 H           1.0   1.6108361657   1.3704871302   0.3912514049
 H           1.0   2.1485964316  -0.1602825972   1.0570599422
 C           6.0   0.6174322707  -0.3567856536  -0.4702994362
 H           1.0   0.8888214135  -1.3734673740  -0.7400874069
 H           1.0   0.3651248818   0.1401359424  -1.4037146397
 C           6.0  -0.6174507142  -0.3694020024   0.4604311329
 H           1.0  -0.8888899615  -1.3930242261   0.7024997872
 H           1.0  -0.3651176426   0.1019659871   1.4070010107
 C           6.0  -1.8345311961   0.3402845636  -0.1341386781
 H           1.0  -2.6772066998   0.3196815966   0.5503950992
 H           1.0  -1.6107645313   1.3806928288  -0.3538699259
 H           1.0  -2.1486074399  -0.1313934814  -1.0610211988
 $END
