 $CONTRL  ICHARG=0 MPLEVL=2 ISPHER=1
          RUNTYP=ENERGY SCFTYP=RHF EXETYP=RUN
          MULT=1 UNITS=ANGS MAXIT=200
          COORD=PRINAXIS                       $END
 $SCF     DIRSCF=.T. CONV=1.0E-08  FDIFF=.F.   $END
 $SYSTEM  TIMLIM=50000 MWORDS=5 MEMDDI=100     $END
 $BASIS   GBASIS=ACCD                          $END
 $GUESS   GUESS=HUCKEL                         $END
 $DATA
Full optimization
 C1
 C           6.0  -1.9252610008   0.1330907754   0.1742718994
 H           1.0  -2.7289225576  -0.5960889850   0.1381393671
 H           1.0  -1.8964889099   0.5471596864   1.1778660023
 H           1.0  -2.1809922464   0.9399882961  -0.5075259751
 C           6.0  -0.5828209754  -0.5010024371  -0.1894371104
 H           1.0  -0.6502856405  -0.9876147860  -1.1591502656
 H           1.0  -0.3735874732  -1.2913206612   0.5285198860
 C           6.0   0.5828186322   0.5011940231  -0.1889345074
 H           1.0   0.6502700398   0.9887983817  -1.1581499679
 H           1.0   0.3735930731   1.2907780694   0.5298325122
 C           6.0   1.9252633464  -0.1332673126   0.1741146063
 H           1.0   2.7289236723   0.5959497605   0.1387167263
 H           1.0   1.8965010716  -0.5483589985   1.1772863640
 H           1.0   2.1809889423  -0.9394699460  -0.5085070445
 $END
