 $CONTRL  ICHARG=0 MPLEVL=2 ISPHER=1
          RUNTYP=ENERGY SCFTYP=RHF EXETYP=RUN
          MULT=1 UNITS=ANGS MAXIT=200
          COORD=PRINAXIS                       $END
 $SCF     DIRSCF=.T. CONV=1.0E-08  FDIFF=.F.   $END
 $SYSTEM  TIMLIM=50000 MWORDS=5 MEMDDI=100     $END
 $BASIS   GBASIS=ACCD                          $END
 $GUESS   GUESS=HUCKEL                         $END
 $DATA
Full optimization
 C1
 C           6.0   1.9543566150   0.1319191862  -0.0006410112
 H           1.0   2.7380092590  -0.6194680674  -0.0001381977
 H           1.0   2.0955440085   0.7563258275  -0.8784437038
 H           1.0   2.0964925858   0.7584705413   0.8754847744
 C           6.0   0.5683720024  -0.5118322274   0.0008474898
 H           1.0   0.4702237128  -1.1565763047   0.8718639187
 H           1.0   0.4692936771  -1.1582274449  -0.8688438979
 C           6.0  -0.5683720043   0.5118327489   0.0004337358
 H           1.0  -0.4702223004   1.1572840417   0.8709259231
 H           1.0  -0.4692950957   1.1575214321  -0.8697826407
 C           6.0  -1.9543566137  -0.1319196647  -0.0005314265
 H           1.0  -2.7380092661   0.6194677396  -0.0006392960
 H           1.0  -2.0955438758  -0.7570402091  -0.8778259146
 H           1.0  -2.0964926985  -0.7577580679   0.8761037152
 $END
