memory gbytes Gb

molecule molecule_7 {
0 1
C          1.95400        0.13200       -0.00000
H          2.73800       -0.61900        0.00000
H          2.09600        0.75700       -0.87700
H          2.09600        0.75800        0.87700
C          0.56800       -0.51200        0.00000
H          0.47000       -1.15700        0.87100
H          0.47000       -1.15800       -0.87000
C         -0.56800        0.51200       -0.00000
H         -0.47000        1.15800        0.87000
H         -0.47000        1.15700       -0.87100
C         -1.95400       -0.13200        0.00000
H         -2.73800        0.61900       -0.00000
H         -2.09600       -0.75800       -0.87700
H         -2.09600       -0.75700        0.87700
}
set globals {
  reference rhf
  g_convergence gau_tight
  basis 6-31G(d)
}
optimize('scf')
