memory 10 Gb

molecule molecule_002 {
0 1
C          1.58200       -0.56900       -0.15000
H          2.58600       -0.47600        0.25200
H          1.18500       -1.52200        0.18400
H          1.66200       -0.60500       -1.23300
C          0.70600        0.60300        0.29800
H          1.19800        1.53200        0.02100
H          0.63700        0.60800        1.38400
C         -0.70600        0.60300       -0.29800
H         -1.19800        1.53200       -0.02100
H         -0.63700        0.60800       -1.38400
C         -1.58200       -0.56900        0.15000
H         -2.58600       -0.47600       -0.25200
H         -1.18500       -1.52200       -0.18400
H         -1.66200       -0.60400        1.23300
}

set globals {
  basis 6-31G(d)
}
optimize('hf')
