 $CONTRL  ICHARG=0 MPLEVL=0
          RUNTYP=OPTIMIZE SCFTYP=RHF EXETYP=RUN
          MULT=1 UNITS=ANGS MAXIT=200
 !        INTTYP=HONDO QMTTOL=1.0E-08 ITOL=30 ICUT=20
          COORD=CART                           $END
 $SCF     DIRSCF=.T. CONV=1.0E-08              $END
 $SYSTEM  TIMLIM=50000 MWORDS=32 MEMDDI=0      $END
 $STATPT  NSTEP=200 OPTTOL=1.0E-06
          HESS=CALC IHREP=10                   $END
 $FORCE   METHOD=ANALYTIC VIBANL=.F.           $END
 $BASIS   GBASIS=N31 NGAUSS=6 NDFUNC=1 NPFUNC=0
          DIFFSP=.F.                           $END
 $GUESS   GUESS=HUCKEL                         $END
 $DATA
03.inp
C1
 C           6.0  -2.1006099697  -0.7221218445   0.1471224244
 H           1.0  -2.0539881343  -0.9042438788   1.2177254550
 H           1.0  -1.6504966938  -1.5726700981  -0.3533707449
 H           1.0  -3.1482966401  -0.6951433856  -0.1365207638
 C           6.0   2.4450718893  -0.1424465883   0.1064278261
 H           1.0   3.0934394406  -0.9148285440  -0.2958618947
 H           1.0   2.8087343892   0.8157786732  -0.2537631094
 H           1.0   2.5533327244  -0.1504658957   1.1875002049
 C           6.0   0.9900650459  -0.3709819382  -0.3029374913
 H           1.0   0.6766223955  -1.3528881797   0.0395808987
 H           1.0   0.9191890522  -0.3879735302  -1.3890770213
 C           6.0   0.0479458918   0.7013426953   0.2506953037
 H           1.0   0.0741078720   0.6673474117   1.3391786159
 H           1.0   0.4277547914   1.6817193827  -0.0300171892
 C           6.0  -1.4066044540   0.5907146735  -0.2205608173
 H           1.0  -1.9697375165   1.4180946359   0.2041741043
 H           1.0  -1.4433308843   0.7224542452  -1.3003093008
 $END
