 $CONTRL  ICHARG=0 MPLEVL=0
          RUNTYP=OPTIMIZE SCFTYP=RHF EXETYP=RUN
          MULT=1 UNITS=ANGS MAXIT=200
 !        INTTYP=HONDO QMTTOL=1.0E-08 ITOL=30 ICUT=20
          COORD=CART                           $END
 $SCF     DIRSCF=.T. CONV=1.0E-08              $END
 $SYSTEM  TIMLIM=50000 MWORDS=32 MEMDDI=0      $END
 $STATPT  NSTEP=200 OPTTOL=1.0E-06
          HESS=CALC IHREP=10                   $END
 $FORCE   METHOD=ANALYTIC VIBANL=.F.           $END
 $BASIS   GBASIS=N31 NGAUSS=6 NDFUNC=1 NPFUNC=0
          DIFFSP=.F.                           $END
 $GUESS   GUESS=HUCKEL                         $END
 $DATA
10.inp
C1
 C           6.0   1.6503302241   0.9964274134  -0.0204447689
 H           1.0   1.4852653032   1.3560432294   0.9914734891
 H           1.0   1.0169587955   1.5721022892  -0.6862479923
 H           1.0   2.6803994713   1.2164244201  -0.2844229497
 C           6.0  -1.8115461352   0.8424117250   0.1458209440
 H           1.0  -2.6905863630   1.1252756536  -0.4258844568
 H           1.0  -2.1159890511   0.7341731247   1.1832147642
 H           1.0  -1.1090175088   1.6654650822   0.0954813768
 C           6.0  -1.2208304760  -0.4670936448  -0.3838686364
 H           1.0  -0.9765066694  -0.3581979976  -1.4388143305
 H           1.0  -1.9989763138  -1.2243832766  -0.3365141903
 C           6.0   0.0131865795  -0.9862869950   0.3775652256
 H           1.0  -0.0864404153  -0.7435080591   1.4344578542
 H           1.0   0.0176906383  -2.0719675964   0.3216816728
 C           6.0   1.3798803672  -0.5050109163  -0.1290688373
 H           1.0   2.1471062383  -1.0350158418   0.4306693597
 H           1.0   1.4988759556  -0.8129208262  -1.1660730645
 $END
