 $CONTRL  ICHARG=0 MPLEVL=0
          RUNTYP=OPTIMIZE SCFTYP=RHF EXETYP=RUN
          MULT=1 UNITS=ANGS MAXIT=200
 !        INTTYP=HONDO QMTTOL=1.0E-08 ITOL=30 ICUT=20
          COORD=CART                           $END
 $SCF     DIRSCF=.T. CONV=1.0E-08              $END
 $SYSTEM  TIMLIM=50000 MWORDS=32 MEMDDI=0      $END
 $STATPT  NSTEP=200 OPTTOL=1.0E-06
          HESS=CALC IHREP=10                   $END
 $FORCE   METHOD=ANALYTIC VIBANL=.F.           $END
 $BASIS   GBASIS=N31 NGAUSS=6 NDFUNC=1 NPFUNC=0
          DIFFSP=.F.                           $END
 $GUESS   GUESS=HUCKEL                         $END
 $DATA
03.inp
C1
 C           6.0   1.8966281576   0.6465417926   0.3734824200
 H           1.0   2.2903652800   0.0251212297   1.1734161648
 H           1.0   1.2689984380   1.4075123598   0.8259731281
 H           1.0   2.7356032164   1.1528761034  -0.0940191333
 C           6.0  -1.8748526502   0.7323843517  -0.2968709573
 H           1.0  -2.7152025540   1.1886776972   0.2173106843
 H           1.0  -1.2266267205   1.5342608601  -0.6349338425
 H           1.0  -2.2619334967   0.2272749969  -1.1779217736
 C           6.0  -1.1424125521  -0.2462368014   0.6227802690
 H           1.0  -1.8599409382  -0.9630534586   1.0146395301
 H           1.0  -0.7578667805   0.2910103501   1.4857121004
 C           6.0  -0.0107560343  -1.0296422842  -0.0550437038
 H           1.0   0.4087538782  -1.7261787843   0.6684921980
 H           1.0  -0.4389255924  -1.6397941722  -0.8482835487
 C           6.0   1.1299522383  -0.1935787026  -0.6493776968
 H           1.0   1.8260910652  -0.8726588588  -1.1357638461
 H           1.0   0.7478400476   0.4528964862  -1.4347342522
 $END
